(set-info :smt-lib-version 2.6)
(set-logic QF_NIA)
(set-info :source |
Generated by: Cristina Borralleras, Daniel Larraz, Albert Oliveras, Enric Rodriguez-Carbonell, Albert Rubio
Generated on: 2017-04-27
Generator: VeryMax
Application: Termination proving
Target solver: barcelogic
|)
(set-info :license "https://creativecommons.org/licenses/by/4.0/")
(set-info :category "industrial")
(set-info :status unknown)
(declare-fun Nl2main_n1 () Int)
(declare-fun Nl2main_sum1 () Int)
(declare-fun Nl2main_n2 () Int)
(declare-fun Nl2main_sum2 () Int)
(declare-fun lam0n0 () Int)
(declare-fun lam0n1 () Int)
(declare-fun lam0n2 () Int)
(declare-fun lam0n3 () Int)
(declare-fun Nl2CT1 () Int)
(declare-fun Nl2CT2 () Int)
(declare-fun lam1n0 () Int)
(declare-fun lam1n1 () Int)
(declare-fun lam1n2 () Int)
(declare-fun lam1n3 () Int)
(declare-fun lam2n0 () Int)
(declare-fun lam2n1 () Int)
(declare-fun lam2n2 () Int)
(declare-fun lam2n3 () Int)
(declare-fun lam3n0 () Int)
(declare-fun lam3n1 () Int)
(declare-fun lam3n2 () Int)
(declare-fun lam4n0 () Int)
(declare-fun lam4n1 () Int)
(declare-fun lam4n2 () Int)
(declare-fun main_n () Int)
(declare-fun undef2 () Int)
(declare-fun main_sum () Int)
(declare-fun lam8n0 () Int)
(declare-fun lam8n1 () Int)
(declare-fun lam8n2 () Int)
(declare-fun lam8n3 () Int)
(declare-fun lam8n4 () Int)
(declare-fun lam8n5 () Int)
(declare-fun RFN1_CT () Int)
(declare-fun RFN1_main_n () Int)
(declare-fun RFN1_main_sum () Int)
(declare-fun lam6n0 () Int)
(declare-fun lam6n1 () Int)
(declare-fun lam6n2 () Int)
(declare-fun lam6n3 () Int)
(declare-fun lam6n4 () Int)
(declare-fun lam6n5 () Int)
(declare-fun lam7n0 () Int)
(declare-fun lam7n1 () Int)
(declare-fun lam7n2 () Int)
(declare-fun lam7n3 () Int)
(declare-fun lam7n4 () Int)
(declare-fun lam7n5 () Int)
(declare-fun lam5n0 () Int)
(declare-fun lam5n1 () Int)
(declare-fun lam5n2 () Int)
(declare-fun lam5n3 () Int)
(declare-fun lam5n4 () Int)
(declare-fun lam5n5 () Int)
(assert ( and ( <= ( - 1 ) Nl2main_n1 ) ( <= Nl2main_n1 1 ) ( <= ( - 1 ) Nl2main_sum1 ) ( <= Nl2main_sum1 1 ) ( <= ( - 1 ) Nl2main_n2 ) ( <= Nl2main_n2 1 ) ( <= ( - 1 ) Nl2main_sum2 ) ( <= Nl2main_sum2 1 ) ))
(assert ( or ( and ( >= lam0n0 0 ) ( >= lam0n1 0 ) ( >= lam0n2 0 ) ( >= lam0n3 0 ) ( > ( + ( * 1 lam0n1 ) ( * Nl2CT1 lam0n2 ) ( * Nl2CT2 lam0n3 ) ( - 1 ) ) 0 ) ( = ( + ( * 1 lam0n1 ) ( * Nl2main_n1 lam0n2 ) ( * Nl2main_n2 lam0n3 ) ) 0 ) ( = ( + ( * 1 lam0n0 ) ( * Nl2main_sum1 lam0n2 ) ( * Nl2main_sum2 lam0n3 ) ) 0 ) ) ( and ( >= lam1n0 0 ) ( >= lam1n1 0 ) ( >= lam1n2 0 ) ( >= lam1n3 0 ) ( > ( + ( * 1 lam1n1 ) ( * Nl2CT1 lam1n2 ) ( * Nl2CT2 lam1n3 ) ( - 1 ( + ( + Nl2CT1 ( * Nl2main_n1 ( - 1 ) ) ) ( * Nl2main_sum1 0 ) ) ) ) 0 ) ( = ( + ( * 1 lam1n1 ) ( * Nl2main_n1 lam1n2 ) ( * Nl2main_n2 lam1n3 ) ( - ( + ( + 0 ( * Nl2main_n1 1 ) ) ( * Nl2main_sum1 1 ) ) ) ) 0 ) ( = ( + ( * 1 lam1n0 ) ( * Nl2main_sum1 lam1n2 ) ( * Nl2main_sum2 lam1n3 ) ( - ( + 0 ( * Nl2main_sum1 1 ) ) ) ) 0 ) ) ))
(assert ( or ( and ( >= lam0n0 0 ) ( >= lam0n1 0 ) ( >= lam0n2 0 ) ( >= lam0n3 0 ) ( > ( + ( * 1 lam0n1 ) ( * Nl2CT1 lam0n2 ) ( * Nl2CT2 lam0n3 ) ( - 1 ) ) 0 ) ( = ( + ( * 1 lam0n1 ) ( * Nl2main_n1 lam0n2 ) ( * Nl2main_n2 lam0n3 ) ) 0 ) ( = ( + ( * 1 lam0n0 ) ( * Nl2main_sum1 lam0n2 ) ( * Nl2main_sum2 lam0n3 ) ) 0 ) ) ( and ( >= lam2n0 0 ) ( >= lam2n1 0 ) ( >= lam2n2 0 ) ( >= lam2n3 0 ) ( > ( + ( * 1 lam2n1 ) ( * Nl2CT1 lam2n2 ) ( * Nl2CT2 lam2n3 ) ( - 1 ( + ( + Nl2CT2 ( * Nl2main_n2 ( - 1 ) ) ) ( * Nl2main_sum2 0 ) ) ) ) 0 ) ( = ( + ( * 1 lam2n1 ) ( * Nl2main_n1 lam2n2 ) ( * Nl2main_n2 lam2n3 ) ( - ( + ( + 0 ( * Nl2main_n2 1 ) ) ( * Nl2main_sum2 1 ) ) ) ) 0 ) ( = ( + ( * 1 lam2n0 ) ( * Nl2main_sum1 lam2n2 ) ( * Nl2main_sum2 lam2n3 ) ( - ( + 0 ( * Nl2main_sum2 1 ) ) ) ) 0 ) ) ))
(assert ( and ( not ( <= ( * ( - 1 ) main_n ) 0 ) ) ( = ( + main_n ( * ( - 1 ) undef2 ) ) 0 ) ( = main_sum 0 ) ( <= ( + Nl2CT1 ( * ( + 0 Nl2main_n1 ) main_n ) ( * ( + 0 Nl2main_sum1 ) main_sum ) ) 0 ) ( <= ( + Nl2CT2 ( * ( + 0 Nl2main_n2 ) main_n ) ( * ( + 0 Nl2main_sum2 ) main_sum ) ) 0 ) ( <= main_sum 0 ) ( <= main_sum 0 ) ( <= ( + ( - 1 ) main_sum ) 0 ) ))
(assert ( or ( and ( and ( >= lam8n0 0 ) ( >= lam8n1 0 ) ( >= lam8n2 0 ) ( >= lam8n3 0 ) ( >= lam8n4 0 ) ( >= lam8n5 0 ) ( > ( + ( * 1 lam8n0 ) ( * 50001 lam8n1 ) ( * 50001 lam8n2 ) ( * 50001 lam8n3 ) ( * Nl2CT1 lam8n4 ) ( * Nl2CT2 lam8n5 ) ( - 1 ( - ( + ( + RFN1_CT ( * RFN1_main_n ( - 1 ) ) ) ( * RFN1_main_sum 0 ) ) RFN1_CT ) ) ) 0 ) ( = ( + ( * 1 lam8n0 ) ( * 1 lam8n1 ) ( * ( - 1 ) lam8n2 ) ( * Nl2main_n1 lam8n4 ) ( * Nl2main_n2 lam8n5 ) ( - ( - ( + ( + 0 ( * RFN1_main_n 1 ) ) ( * RFN1_main_sum 1 ) ) RFN1_main_n ) ) ) 0 ) ( = ( + ( * 1 lam8n1 ) ( * 2 lam8n2 ) ( * 1 lam8n3 ) ( * Nl2main_sum1 lam8n4 ) ( * Nl2main_sum2 lam8n5 ) ( - ( - ( + 0 ( * RFN1_main_sum 1 ) ) RFN1_main_sum ) ) ) 0 ) ) ( and ( and ( >= lam6n0 0 ) ( >= lam6n1 0 ) ( >= lam6n2 0 ) ( >= lam6n3 0 ) ( >= lam6n4 0 ) ( >= lam6n5 0 ) ( > ( + ( * 1 lam6n0 ) ( * 50001 lam6n1 ) ( * 50001 lam6n2 ) ( * 50001 lam6n3 ) ( * Nl2CT1 lam6n4 ) ( * Nl2CT2 lam6n5 ) ( - 1 ( - RFN1_CT ) ) ) 0 ) ( = ( + ( * 1 lam6n0 ) ( * 1 lam6n1 ) ( * ( - 1 ) lam6n2 ) ( * Nl2main_n1 lam6n4 ) ( * Nl2main_n2 lam6n5 ) ( - ( - RFN1_main_n ) ) ) 0 ) ( = ( + ( * 1 lam6n1 ) ( * 2 lam6n2 ) ( * 1 lam6n3 ) ( * Nl2main_sum1 lam6n4 ) ( * Nl2main_sum2 lam6n5 ) ( - ( - RFN1_main_sum ) ) ) 0 ) ) ( and ( >= lam7n0 0 ) ( >= lam7n1 0 ) ( >= lam7n2 0 ) ( >= lam7n3 0 ) ( >= lam7n4 0 ) ( >= lam7n5 0 ) ( > ( + ( * 1 lam7n0 ) ( * 50001 lam7n1 ) ( * 50001 lam7n2 ) ( * 50001 lam7n3 ) ( * Nl2CT1 lam7n4 ) ( * Nl2CT2 lam7n5 ) ( - 1 ( + ( - ( + ( + RFN1_CT ( * RFN1_main_n ( - 1 ) ) ) ( * RFN1_main_sum 0 ) ) RFN1_CT ) 1 ) ) ) 0 ) ( = ( + ( * 1 lam7n0 ) ( * 1 lam7n1 ) ( * ( - 1 ) lam7n2 ) ( * Nl2main_n1 lam7n4 ) ( * Nl2main_n2 lam7n5 ) ( - ( - ( + ( + 0 ( * RFN1_main_n 1 ) ) ( * RFN1_main_sum 1 ) ) RFN1_main_n ) ) ) 0 ) ( = ( + ( * 1 lam7n1 ) ( * 2 lam7n2 ) ( * 1 lam7n3 ) ( * Nl2main_sum1 lam7n4 ) ( * Nl2main_sum2 lam7n5 ) ( - ( - ( + 0 ( * RFN1_main_sum 1 ) ) RFN1_main_sum ) ) ) 0 ) ) ) ) ( and ( >= lam5n0 0 ) ( >= lam5n1 0 ) ( >= lam5n2 0 ) ( >= lam5n3 0 ) ( >= lam5n4 0 ) ( >= lam5n5 0 ) ( > ( + ( * 1 lam5n0 ) ( * 50001 lam5n1 ) ( * 50001 lam5n2 ) ( * 50001 lam5n3 ) ( * Nl2CT1 lam5n4 ) ( * Nl2CT2 lam5n5 ) ( - 1 ) ) 0 ) ( = ( + ( * 1 lam5n0 ) ( * 1 lam5n1 ) ( * ( - 1 ) lam5n2 ) ( * Nl2main_n1 lam5n4 ) ( * Nl2main_n2 lam5n5 ) ) 0 ) ( = ( + ( * 1 lam5n1 ) ( * 2 lam5n2 ) ( * 1 lam5n3 ) ( * Nl2main_sum1 lam5n4 ) ( * Nl2main_sum2 lam5n5 ) ) 0 ) ) ))
(check-sat)
(exit)
